(declare-fun temp358_1 () (_ BitVec 64))
(declare-fun var989741 () (_ BitVec 64))
(declare-fun temp358_2 () (_ BitVec 64))
(declare-fun var989757 () (_ BitVec 64))
(declare-fun temp358_3 () (_ BitVec 64))
(declare-fun var989761 () (_ BitVec 64))
(declare-fun var989766 () (_ BitVec 64))
(declare-fun var989767 () (_ BitVec 64))
(declare-fun ARGNAME_input_NAMEEND_DIM () (_ BitVec 64))
(declare-fun var989768 () (_ BitVec 64))
(declare-fun var989771 () (_ BitVec 64))
(declare-fun var989772 () (_ BitVec 64))
(declare-fun var989773 () (_ BitVec 64))
(declare-fun temp358_4 () (_ BitVec 64))
(declare-fun var989774 () (_ BitVec 64))
(declare-fun temp358_5 () (_ BitVec 64))
(declare-fun var989775 () (_ BitVec 64))
(declare-fun temp358_6 () (_ BitVec 64))
(declare-fun var989776 () (_ BitVec 64))
(declare-fun temp358_7 () (_ BitVec 64))
(declare-fun var989810 () (_ BitVec 64))
(declare-fun temp358_8 () (_ BitVec 64))
(declare-fun temp358_10 () (_ BitVec 64))
(declare-fun temp358_9 () (_ BitVec 64))
(declare-fun temp358_12 () (_ BitVec 64))
(declare-fun temp358_11 () (_ BitVec 64))
(declare-fun temp358_13 () (_ BitVec 64))
(declare-fun var1387902 () (_ BitVec 64))
(declare-fun temp358_14 () (_ BitVec 64))
(declare-fun var1387923 () (_ BitVec 64))
(declare-fun var1521369 () (_ BitVec 64))
(declare-fun var1521373 () (_ BitVec 64))
(declare-fun var1521631 () (_ BitVec 64))
(declare-fun var1521633 () (_ BitVec 64))
(declare-fun temp358_15 () (_ BitVec 64))
(declare-fun ARGNAME_weight_NAMEEND_DIM () (_ BitVec 64))
(declare-fun var1521660 () (_ BitVec 64))
(declare-fun temp358_16 () (_ BitVec 64))
(declare-fun var1521661 () (_ BitVec 64))
(declare-fun temp358_17 () (_ BitVec 64))
(declare-fun temp358_18 () (_ BitVec 64))
(declare-fun ARGNAME_groups_NAMEEND () (_ BitVec 64))
(declare-fun var1521706 () (_ BitVec 64))
(declare-fun temp358_19 () (_ BitVec 64))
(declare-fun ARGNAME_stride_NAMEEND_LEN () (_ BitVec 64))
(declare-fun ARGNAME_padding_NAMEEND_LEN () (_ BitVec 64))
(declare-fun ARGNAME_dilation_NAMEEND_LEN () (_ BitVec 64))
(declare-fun var2240288 () (_ BitVec 64))
(declare-fun temp358_20 () (_ BitVec 64))
(declare-fun temp358_21 () (_ BitVec 64))
(declare-fun ARGNAME_padding_NAMEEND_VAL () (Array (_ BitVec 64) (_ BitVec 64)))
(declare-fun temp358_22 () (_ BitVec 64))
(declare-fun temp358_23 () (_ BitVec 64))
(declare-fun temp358_24 () (_ BitVec 64))
(declare-fun temp358_25 () (_ BitVec 64))
(declare-fun temp358_26 () (_ BitVec 64))
(declare-fun temp358_27 () (_ BitVec 64))
(declare-fun temp358_28 () (_ BitVec 64))
(declare-fun temp358_29 () (_ BitVec 64))
(declare-fun temp358_30 () (_ BitVec 64))
(declare-fun temp358_31 () (_ BitVec 64))
(declare-fun temp358_32 () (_ BitVec 64))
(declare-fun temp358_33 () (_ BitVec 64))
(declare-fun temp358_34 () (_ BitVec 64))
(declare-fun temp358_35 () (_ BitVec 64))
(declare-fun temp358_36 () (_ BitVec 64))
(declare-fun temp358_37 () (_ BitVec 64))
(declare-fun temp358_38 () (_ BitVec 64))
(declare-fun temp358_39 () (_ BitVec 64))
(declare-fun temp358_40 () (_ BitVec 64))
(declare-fun temp358_41 () (_ BitVec 64))
(declare-fun temp358_42 () (_ BitVec 64))
(declare-fun temp358_43 () (_ BitVec 64))
(declare-fun temp358_44 () (_ BitVec 64))
(declare-fun temp358_45 () (_ BitVec 64))
(declare-fun temp358_46 () (_ BitVec 64))
(declare-fun temp358_47 () (_ BitVec 64))
(declare-fun temp358_48 () (_ BitVec 64))
(declare-fun temp358_49 () (_ BitVec 64))
(declare-fun temp358_50 () (_ BitVec 64))
(declare-fun temp358_51 () (_ BitVec 64))
(declare-fun temp358_52 () (_ BitVec 64))
(declare-fun temp358_53 () (_ BitVec 64))
(declare-fun temp358_54 () (_ BitVec 64))
(declare-fun temp358_55 () (_ BitVec 64))
(declare-fun temp358_56 () (_ BitVec 64))
(declare-fun temp358_57 () (_ BitVec 64))
(declare-fun temp358_58 () (_ BitVec 64))
(declare-fun temp358_59 () (_ BitVec 64))
(declare-fun temp358_60 () (_ BitVec 64))
(declare-fun temp358_61 () (_ BitVec 64))
(declare-fun var2240290 () (_ BitVec 64))
(declare-fun temp358_62 () (_ BitVec 64))
(declare-fun temp358_63 () (_ BitVec 64))
(declare-fun temp358_64 () (_ BitVec 64))
(declare-fun ARGNAME_stride_NAMEEND_VAL () (Array (_ BitVec 64) (_ BitVec 64)))
(declare-fun temp358_65 () (_ BitVec 64))
(declare-fun temp358_66 () (_ BitVec 64))
(declare-fun temp358_67 () (_ BitVec 64))
(declare-fun temp358_68 () (_ BitVec 64))
(declare-fun temp358_69 () (_ BitVec 64))
(declare-fun temp358_70 () (_ BitVec 64))
(declare-fun temp358_71 () (_ BitVec 64))
(declare-fun temp358_72 () (_ BitVec 64))
(declare-fun temp358_73 () (_ BitVec 64))
(declare-fun temp358_74 () (_ BitVec 64))
(declare-fun temp358_75 () (_ BitVec 64))
(declare-fun temp358_76 () (_ BitVec 64))
(declare-fun temp358_77 () (_ BitVec 64))
(declare-fun temp358_78 () (_ BitVec 64))
(declare-fun temp358_79 () (_ BitVec 64))
(declare-fun temp358_80 () (_ BitVec 64))
(declare-fun temp358_81 () (_ BitVec 64))
(declare-fun temp358_82 () (_ BitVec 64))
(declare-fun temp358_83 () (_ BitVec 64))
(declare-fun temp358_84 () (_ BitVec 64))
(declare-fun temp358_85 () (_ BitVec 64))
(declare-fun temp358_86 () (_ BitVec 64))
(declare-fun temp358_87 () (_ BitVec 64))
(declare-fun temp358_88 () (_ BitVec 64))
(declare-fun temp358_89 () (_ BitVec 64))
(declare-fun temp358_90 () (_ BitVec 64))
(declare-fun temp358_91 () (_ BitVec 64))
(declare-fun temp358_92 () (_ BitVec 64))
(declare-fun temp358_93 () (_ BitVec 64))
(declare-fun temp358_94 () (_ BitVec 64))
(declare-fun temp358_95 () (_ BitVec 64))
(declare-fun temp358_96 () (_ BitVec 64))
(declare-fun temp358_97 () (_ BitVec 64))
(declare-fun temp358_98 () (_ BitVec 64))
(declare-fun temp358_99 () (_ BitVec 64))
(declare-fun temp358_100 () (_ BitVec 64))
(declare-fun temp358_101 () (_ BitVec 64))
(declare-fun temp358_102 () (_ BitVec 64))
(declare-fun temp358_103 () (_ BitVec 64))
(declare-fun temp358_104 () (_ BitVec 64))
(declare-fun var2240311 () (_ BitVec 64))
(declare-fun temp358_105 () (_ BitVec 64))
(declare-fun temp358_106 () (_ BitVec 64))
(declare-fun var2228402 () (_ BitVec 64))
(declare-fun temp358_107 () (_ BitVec 64))
(declare-fun temp358_108 () (_ BitVec 64))
(declare-fun ARGNAME_weight_NAMEEND_DIMSIZE
             ()
             (Array (_ BitVec 64) (_ BitVec 64)))
(declare-fun temp358_109 () (_ BitVec 64))
(declare-fun temp358_110 () (_ BitVec 64))
(declare-fun temp358_111 () (_ BitVec 64))
(declare-fun temp358_112 () (_ BitVec 64))
(declare-fun temp358_113 () (_ BitVec 64))
(declare-fun temp358_114 () (_ BitVec 64))
(declare-fun temp358_115 () (_ BitVec 64))
(declare-fun temp358_116 () (_ BitVec 64))
(declare-fun temp358_117 () (_ BitVec 64))
(declare-fun temp358_118 () (_ BitVec 64))
(declare-fun temp358_119 () (_ BitVec 64))
(declare-fun temp358_120 () (_ BitVec 64))
(declare-fun temp358_121 () (_ BitVec 64))
(declare-fun temp358_122 () (_ BitVec 64))
(declare-fun temp358_123 () (_ BitVec 64))
(declare-fun temp358_124 () (_ BitVec 64))
(declare-fun temp358_126 () (_ BitVec 64))
(declare-fun temp358_127 () (_ BitVec 64))
(declare-fun temp358_125 () (_ BitVec 64))
(declare-fun var2240356 () (_ BitVec 64))
(declare-fun temp358_128 () (_ BitVec 64))
(declare-fun temp358_129 () (_ BitVec 64))
(declare-fun temp358_131 () (_ BitVec 64))
(declare-fun temp358_132 () (_ BitVec 64))
(declare-fun temp358_130 () (_ BitVec 64))
(declare-fun var2240378 () (_ BitVec 64))
(declare-fun temp358_133 () (_ BitVec 64))
(declare-fun var2240379 () (_ BitVec 64))
(declare-fun temp358_134 () (_ BitVec 64))
(declare-fun var2240398 () (_ BitVec 64))
(declare-fun temp358_135 () (_ BitVec 64))
(declare-fun var2240399 () (_ BitVec 64))
(declare-fun temp358_136 () (_ BitVec 64))
(declare-fun temp358_137 () (_ BitVec 64))
(declare-fun var2229290 () (_ BitVec 64))
(declare-fun temp358_139 () (_ BitVec 64))
(declare-fun temp358_140 () (_ BitVec 64))
(declare-fun temp358_138 () (_ BitVec 64))
(declare-fun var2240411 () (_ BitVec 64))
(declare-fun temp358_141 () (_ BitVec 64))
(declare-fun temp358_143 () (_ BitVec 64))
(declare-fun temp358_144 () (_ BitVec 64))
(declare-fun temp358_142 () (_ BitVec 64))
(declare-fun temp358_145 () (_ BitVec 64))
(declare-fun var2503529 () (_ BitVec 64))
(declare-fun temp358_146 () (_ BitVec 64))
(declare-fun var2240569 () (_ BitVec 64))
(declare-fun temp358_147 () (_ BitVec 64))
(declare-fun var1521778 () (_ BitVec 64))
(declare-fun temp358_148 () (_ BitVec 64))
(declare-fun temp358_149 () (_ BitVec 64))
(declare-fun var1521908 () (_ BitVec 64))
(declare-fun var4010473 () (_ BitVec 64))
(declare-fun temp358_150 () (_ BitVec 64))
(declare-fun var4210495 () (_ BitVec 64))
(declare-fun var4210497 () (_ BitVec 64))
(declare-fun var4210454 () (_ BitVec 64))
(declare-fun var1521921 () (_ BitVec 64))
(declare-fun temp358_151 () (_ BitVec 64))
(declare-fun var4339331 () (_ BitVec 64))
(declare-fun var4339333 () (_ BitVec 64))
(declare-fun var4404876 () (_ BitVec 64))
(declare-fun var4404877 () (_ BitVec 64))
(declare-fun temp358_152 () (_ BitVec 64))
(assert (= temp358_1 #x0000000000000002))
(assert (= var989741 temp358_1))
(assert (= temp358_2 #x0000000000000001))
(assert (= var989757 (bvadd var989741 temp358_2)))
(assert (= temp358_3 #x0000000000000002))
(assert (= var989761 (bvadd var989741 temp358_3)))
(assert (= var989766 var989761))
(assert (= var989767
   (ite (= ARGNAME_input_NAMEEND_DIM var989766)
        #x0000000000000001
        #x0000000000000000)))
(assert (= var989768 var989767))
(assert (= var989771 var989757))
(assert (= var989772
   (ite (distinct ARGNAME_input_NAMEEND_DIM var989771)
        #x0000000000000001
        #x0000000000000000)))
(assert (= var989773 var989768))
(assert (= temp358_4 #x0000000000000001))
(assert (= var989774 (bvand var989773 temp358_4)))
(assert (= temp358_5 #x0000000000000000))
(assert (= var989775
   (ite (= var989774 temp358_5) #x0000000000000001 #x0000000000000000)))
(assert (= var989776 (bvand var989772 var989775)))
(assert (= temp358_6 #x0000000000000000))
(assert (= var989776 temp358_6))
(assert (= temp358_7 #x0000000000000000))
(assert (= var989810
   (ite (= var989773 temp358_7) #x0000000000000001 #x0000000000000000)))
(assert (= temp358_8 #x0000000000000001))
(assert (= var989810 temp358_8))
(assert (= temp358_10 #x0000000000000000))
(assert (= temp358_9 temp358_10))
(assert (= temp358_12 #x0000000000000002))
(assert (= temp358_11 temp358_12))
(assert (= temp358_13 #x0000000000000000))
(assert (= var1387902 temp358_13))
(assert (= temp358_14 #x0000000000000001))
(assert (= var1387923 temp358_14))
(assert (= var1521369 var1387902))
(assert (= var1521373 var1387923))
(assert (= var1521631 var1521369))
(assert (= var1521633 var1521373))
(assert (= temp358_15 #xfffffffffffffffe))
(assert (= var1521660 (bvadd ARGNAME_weight_NAMEEND_DIM temp358_15)))
(assert (= temp358_16 #x0000000000000003))
(assert (= var1521661
   (ite (bvslt ARGNAME_weight_NAMEEND_DIM temp358_16)
        #x0000000000000001
        #x0000000000000000)))
(assert (= temp358_17 #x0000000000000000))
(assert (= var1521661 temp358_17))
(assert (= temp358_18 #x0000000000000001))
(assert (= var1521706
   (ite (bvslt ARGNAME_groups_NAMEEND temp358_18)
        #x0000000000000001
        #x0000000000000000)))
(assert (= temp358_19 #x0000000000000000))
(assert (= var1521706 temp358_19))
(assert (= ARGNAME_stride_NAMEEND_LEN var1521660))
(assert (= ARGNAME_padding_NAMEEND_LEN var1521660))
(assert (= ARGNAME_dilation_NAMEEND_LEN var1521660))
(assert (= var2240288 var1521631))
(assert (= temp358_20 #x0000000000000000))
(assert (= temp358_21 temp358_20))
(assert (= temp358_22 (select ARGNAME_padding_NAMEEND_VAL temp358_21)))
(assert (= temp358_23 #x0000000000000001))
(assert (= temp358_24 temp358_23))
(assert (= temp358_25 (select ARGNAME_padding_NAMEEND_VAL temp358_24)))
(assert (= temp358_26 #x0000000000000002))
(assert (= temp358_27 temp358_26))
(assert (= temp358_28 (select ARGNAME_padding_NAMEEND_VAL temp358_27)))
(assert (= temp358_29 #x0000000000000003))
(assert (= temp358_30 temp358_29))
(assert (= temp358_31 (select ARGNAME_padding_NAMEEND_VAL temp358_30)))
(assert (= temp358_32 #x0000000000000004))
(assert (= temp358_33 temp358_32))
(assert (= temp358_34 (select ARGNAME_padding_NAMEEND_VAL temp358_33)))
(assert (= temp358_35 #x0000000000000005))
(assert (= temp358_36 temp358_35))
(assert (= temp358_37 (select ARGNAME_padding_NAMEEND_VAL temp358_36)))
(assert (= temp358_38 #x0000000000000000))
(assert (= temp358_39 #x0000000000000000))
(assert (= temp358_40 temp358_39))
(assert (= temp358_41 (select ARGNAME_padding_NAMEEND_VAL temp358_40)))
(assert (= temp358_42 #x0000000000000000))
(assert (= temp358_43 #x0000000000000001))
(assert (= temp358_44 temp358_43))
(assert (= temp358_45 (select ARGNAME_padding_NAMEEND_VAL temp358_44)))
(assert (= temp358_46 #x0000000000000000))
(assert (= temp358_47 #x0000000000000002))
(assert (= temp358_48 temp358_47))
(assert (= temp358_49 (select ARGNAME_padding_NAMEEND_VAL temp358_48)))
(assert (= temp358_50 #x0000000000000000))
(assert (= temp358_51 #x0000000000000003))
(assert (= temp358_52 temp358_51))
(assert (= temp358_53 (select ARGNAME_padding_NAMEEND_VAL temp358_52)))
(assert (= temp358_54 #x0000000000000000))
(assert (= temp358_55 #x0000000000000004))
(assert (= temp358_56 temp358_55))
(assert (= temp358_57 (select ARGNAME_padding_NAMEEND_VAL temp358_56)))
(assert (= temp358_58 #x0000000000000000))
(assert (= temp358_59 #x0000000000000005))
(assert (= temp358_60 temp358_59))
(assert (= temp358_61 (select ARGNAME_padding_NAMEEND_VAL temp358_60)))
(assert (= var2240290
   (ite (and true
             (bvslt temp358_41 temp358_38)
             (bvslt temp358_45 temp358_42)
             (bvslt temp358_49 temp358_46)
             (bvslt temp358_53 temp358_50)
             (bvslt temp358_57 temp358_54)
             (bvslt temp358_61 temp358_58))
        #x0000000000000001
        #x0000000000000000)))
(assert (= temp358_62 #x0000000000000000))
(assert (= var2240290 temp358_62))
(assert (= temp358_63 #x0000000000000000))
(assert (= temp358_64 temp358_63))
(assert (= temp358_65 (select ARGNAME_stride_NAMEEND_VAL temp358_64)))
(assert (= temp358_66 #x0000000000000001))
(assert (= temp358_67 temp358_66))
(assert (= temp358_68 (select ARGNAME_stride_NAMEEND_VAL temp358_67)))
(assert (= temp358_69 #x0000000000000002))
(assert (= temp358_70 temp358_69))
(assert (= temp358_71 (select ARGNAME_stride_NAMEEND_VAL temp358_70)))
(assert (= temp358_72 #x0000000000000003))
(assert (= temp358_73 temp358_72))
(assert (= temp358_74 (select ARGNAME_stride_NAMEEND_VAL temp358_73)))
(assert (= temp358_75 #x0000000000000004))
(assert (= temp358_76 temp358_75))
(assert (= temp358_77 (select ARGNAME_stride_NAMEEND_VAL temp358_76)))
(assert (= temp358_78 #x0000000000000005))
(assert (= temp358_79 temp358_78))
(assert (= temp358_80 (select ARGNAME_stride_NAMEEND_VAL temp358_79)))
(assert (= temp358_81 #x0000000000000000))
(assert (= temp358_82 #x0000000000000000))
(assert (= temp358_83 temp358_82))
(assert (= temp358_84 (select ARGNAME_stride_NAMEEND_VAL temp358_83)))
(assert (= temp358_85 #x0000000000000000))
(assert (= temp358_86 #x0000000000000001))
(assert (= temp358_87 temp358_86))
(assert (= temp358_88 (select ARGNAME_stride_NAMEEND_VAL temp358_87)))
(assert (= temp358_89 #x0000000000000000))
(assert (= temp358_90 #x0000000000000002))
(assert (= temp358_91 temp358_90))
(assert (= temp358_92 (select ARGNAME_stride_NAMEEND_VAL temp358_91)))
(assert (= temp358_93 #x0000000000000000))
(assert (= temp358_94 #x0000000000000003))
(assert (= temp358_95 temp358_94))
(assert (= temp358_96 (select ARGNAME_stride_NAMEEND_VAL temp358_95)))
(assert (= temp358_97 #x0000000000000000))
(assert (= temp358_98 #x0000000000000004))
(assert (= temp358_99 temp358_98))
(assert (= temp358_100 (select ARGNAME_stride_NAMEEND_VAL temp358_99)))
(assert (= temp358_101 #x0000000000000000))
(assert (= temp358_102 #x0000000000000005))
(assert (= temp358_103 temp358_102))
(assert (= temp358_104 (select ARGNAME_stride_NAMEEND_VAL temp358_103)))
(assert (= var2240311
   (ite (and true
             (bvsle temp358_84 temp358_81)
             (bvsle temp358_88 temp358_85)
             (bvsle temp358_92 temp358_89)
             (bvsle temp358_96 temp358_93)
             (bvsle temp358_100 temp358_97)
             (bvsle temp358_104 temp358_101))
        #x0000000000000001
        #x0000000000000000)))
(assert (= temp358_105 #x0000000000000000))
(assert (= var2240311 temp358_105))
(assert (= temp358_106 #x0000000000000000))
(assert (= var2228402 temp358_106))
(assert (= temp358_107 #x0000000000000000))
(assert (= temp358_108 temp358_107))
(assert (= temp358_109 (select ARGNAME_weight_NAMEEND_DIMSIZE temp358_108)))
(assert (= temp358_110 #x0000000000000001))
(assert (= temp358_111 temp358_110))
(assert (= temp358_112 (select ARGNAME_weight_NAMEEND_DIMSIZE temp358_111)))
(assert (= temp358_113 #x0000000000000002))
(assert (= temp358_114 temp358_113))
(assert (= temp358_115 (select ARGNAME_weight_NAMEEND_DIMSIZE temp358_114)))
(assert (= temp358_116 #x0000000000000003))
(assert (= temp358_117 temp358_116))
(assert (= temp358_118 (select ARGNAME_weight_NAMEEND_DIMSIZE temp358_117)))
(assert (= temp358_119 #x0000000000000004))
(assert (= temp358_120 temp358_119))
(assert (= temp358_121 (select ARGNAME_weight_NAMEEND_DIMSIZE temp358_120)))
(assert (= temp358_122 #x0000000000000005))
(assert (= temp358_123 temp358_122))
(assert (= temp358_124 (select ARGNAME_weight_NAMEEND_DIMSIZE temp358_123)))
(assert (= temp358_126 var2228402))
(assert (= temp358_127 (select ARGNAME_weight_NAMEEND_DIMSIZE temp358_126)))
(assert (= temp358_125 temp358_127))
(assert (= var2240356
   (ite (bvslt temp358_125 ARGNAME_groups_NAMEEND)
        #x0000000000000001
        #x0000000000000000)))
(assert (= temp358_128 #x0000000000000000))
(assert (= var2240356 temp358_128))
(assert (= temp358_129 #x0000000000000000))
(assert (= var2228402 temp358_129))
(assert (= temp358_131 var2228402))
(assert (= temp358_132 (select ARGNAME_weight_NAMEEND_DIMSIZE temp358_131)))
(assert (= temp358_130 temp358_132))
(assert (= var2240378 (bvsmod temp358_130 ARGNAME_groups_NAMEEND)))
(assert (= temp358_133 #x0000000000000000))
(assert (= var2240379
   (ite (= var2240378 temp358_133) #x0000000000000001 #x0000000000000000)))
(assert (= temp358_134 #x0000000000000001))
(assert (= var2240379 temp358_134))
(assert (= var2240398 var2240288))
(assert (= temp358_135 #x0000000000000000))
(assert (= var2240399
   (ite (= var2240398 temp358_135) #x0000000000000001 #x0000000000000000)))
(assert (= temp358_136 #x0000000000000001))
(assert (= var2240399 temp358_136))
(assert (= temp358_137 #x0000000000000001))
(assert (= var2229290 temp358_137))
(assert (= temp358_139 var2229290))
(assert (= temp358_140 (select ARGNAME_weight_NAMEEND_DIMSIZE temp358_139)))
(assert (= temp358_138 temp358_140))
(assert (= var2240411 (bvmul ARGNAME_groups_NAMEEND temp358_138)))
(assert (= temp358_141 #x0000000000000000))
(assert (= var2228402 temp358_141))
(assert (= temp358_143 var2228402))
(assert (= temp358_144 (select ARGNAME_weight_NAMEEND_DIMSIZE temp358_143)))
(assert (= temp358_142 temp358_144))
(assert (= temp358_145 #x0000000000000002))
(assert (= var2503529 temp358_145))
(assert (= temp358_146 #x0000000000000001))
(assert (= var2240569 temp358_146))
(assert (= temp358_147 #x0000000000000003))
(assert (= var1521778
   (ite (= ARGNAME_weight_NAMEEND_DIM temp358_147)
        #x0000000000000001
        #x0000000000000000)))
(assert (= temp358_148 #x0000000000000001))
(assert (= var1521778 temp358_148))
(assert (= temp358_149 #x0000000000000001))
(assert (= var1521908 temp358_149))
(assert (= var4010473 var1521908))
(assert (= temp358_150 #x0000000000000000))
(assert (= var4210495 temp358_150))
(assert (= var4210497 var4210495))
(assert (= var4210454 var4210497))
(assert (= var1521921 var4210454))
(assert (= temp358_151 #x0000000000000002))
(assert (= var4339331 temp358_151))
(assert (= var4339333 (bvsub ARGNAME_weight_NAMEEND_DIM var4339331)))
(assert (= var4404876 var4339331))
(assert (= var4404877 var4339333))
(assert (= temp358_152 #x0000000000000001))
(assert (= var1521778 temp358_152))
(model-add temp358_1 () (_ BitVec 64) #x0000000000000002)
(model-add var989741 () (_ BitVec 64) #x0000000000000002)
(model-add temp358_2 () (_ BitVec 64) #x0000000000000001)
(model-add var989757 () (_ BitVec 64) #x0000000000000003)
(model-add temp358_3 () (_ BitVec 64) #x0000000000000002)
(model-add var989761 () (_ BitVec 64) #x0000000000000004)
(model-add var989766 () (_ BitVec 64) #x0000000000000004)
(model-add var989767
           ()
           (_ BitVec 64)
           (ite (= ARGNAME_input_NAMEEND_DIM #x0000000000000004)
                #x0000000000000001
                #x0000000000000000))
(model-add var989768
           ()
           (_ BitVec 64)
           (ite (= ARGNAME_input_NAMEEND_DIM #x0000000000000004)
                #x0000000000000001
                #x0000000000000000))
(model-add var989771 () (_ BitVec 64) #x0000000000000003)
(model-add var989772
           ()
           (_ BitVec 64)
           (ite (= ARGNAME_input_NAMEEND_DIM #x0000000000000003)
                #x0000000000000000
                #x0000000000000001))
(model-add var989773
           ()
           (_ BitVec 64)
           (ite (= ARGNAME_input_NAMEEND_DIM #x0000000000000004)
                #x0000000000000001
                #x0000000000000000))
(model-add temp358_4 () (_ BitVec 64) #x0000000000000001)
(model-add var989774
           ()
           (_ BitVec 64)
           (concat #b000000000000000000000000000000000000000000000000000000000000000
                   (ite (= ARGNAME_input_NAMEEND_DIM #x0000000000000004)
                        #b1
                        #b0)))
(model-add temp358_5 () (_ BitVec 64) #x0000000000000000)
(model-add var989775
           ()
           (_ BitVec 64)
           (ite (= ARGNAME_input_NAMEEND_DIM #x0000000000000004)
                #x0000000000000000
                #x0000000000000001))
(model-add temp358_6 () (_ BitVec 64) #x0000000000000000)
(model-add var989776 () (_ BitVec 64) #x0000000000000000)






